% File represents an instance of a Composite Structure problem to be solved by a CP framework
% Created on 2025-03-26 10:41:15.384
T = 56;
n = 9;
m = 12;
edges = [(2, 1),
(5, 4),
(8, 7),
(3, 2),
(6, 5),
(9, 8),
(4, 1),
(7, 4),
(5, 2),
(8, 5),
(6, 3),
(9, 6)];
counts = [|14, 2, 14, 10,
|14, 2, 14, 12,
|14, 6, 14, 14,
|14, 2, 14, 14,
|14, 4, 14, 16,
|16, 6, 16, 16,
|16, 2, 16, 14,
|16, 4, 16, 16,
|16, 8, 16, 16|];
